clingo/ec2asp-examples/logs/WalkingTurkey40-ea.log
clingo version 5.7.2
Reading from ../axioms/dec_clingo.lp ...
Solving...
Answer: 1 (Time: 0.022s)
happens(shoot,25) holdsAt(alive,0) holdsAt(loaded,0) holdsAt(walking,0) holdsAt(loaded,1) holdsAt(loaded,2) holdsAt(loaded,3) holdsAt(loaded,4) holdsAt(loaded,5) holdsAt(loaded,6) holdsAt(loaded,7) holdsAt(loaded,8) holdsAt(loaded,9) holdsAt(loaded,10) holdsAt(loaded,11) holdsAt(loaded,12) holdsAt(loaded,13) holdsAt(loaded,14) holdsAt(loaded,15) holdsAt(loaded,16) holdsAt(loaded,17) holdsAt(loaded,18) holdsAt(loaded,19) holdsAt(loaded,20) holdsAt(loaded,21) holdsAt(loaded,22) holdsAt(loaded,23) holdsAt(loaded,24) holdsAt(loaded,25) holdsAt(loaded,26) holdsAt(loaded,27) holdsAt(loaded,28) holdsAt(loaded,29) holdsAt(loaded,30) holdsAt(loaded,31) holdsAt(loaded,32) holdsAt(loaded,33) holdsAt(loaded,34) holdsAt(loaded,35) holdsAt(loaded,36) holdsAt(loaded,37) holdsAt(loaded,38) holdsAt(loaded,39) holdsAt(loaded,40) holdsAt(alive,1) holdsAt(alive,2) holdsAt(alive,3) holdsAt(alive,4) holdsAt(alive,5) holdsAt(alive,6) holdsAt(alive,7) holdsAt(alive,8) holdsAt(alive,9) holdsAt(alive,10) holdsAt(alive,11) holdsAt(alive,12) holdsAt(alive,13) holdsAt(alive,14) holdsAt(alive,15) holdsAt(alive,16) holdsAt(alive,17) holdsAt(alive,18) holdsAt(alive,19) holdsAt(alive,20) holdsAt(alive,21) holdsAt(alive,22) holdsAt(alive,23) holdsAt(alive,24) holdsAt(alive,25) holdsAt(walking,1) holdsAt(walking,2) holdsAt(walking,3) holdsAt(walking,4) holdsAt(walking,5) holdsAt(walking,6) holdsAt(walking,7) holdsAt(walking,8) holdsAt(walking,9) holdsAt(walking,10) holdsAt(walking,11) holdsAt(walking,12) holdsAt(walking,13) holdsAt(walking,14) holdsAt(walking,15) holdsAt(walking,16) holdsAt(walking,17) holdsAt(walking,18) holdsAt(walking,19) holdsAt(walking,20) holdsAt(walking,21) holdsAt(walking,22) holdsAt(walking,23) holdsAt(walking,24) holdsAt(walking,25)
SATISFIABLE

Models       : 1
Calls        : 1
Time         : 0.023s (Solving: 0.00s 1st Model: 0.00s Unsat: 0.00s)
CPU Time     : 0.008s
